1111100 AB
360 382 405 427 449 472 494 516 539 561 583 606 628 661 695 729 762 796 830 863 897 919 941 964 986 1008 1030 1053 1075 1097 1119 1152 1185
1111100 BA
391 413 436 458 480 503 525 547 570 592 614 637 659 692 726 760 793 827 861 894 928 950 972 995 1017 1039 1061 1084 1106 1128 1150 1183 1216
0000011 AB
360 427 494 562 595 629 662 729 796 863 897 930 964 1031 1048 1098 1118 1185
0000011 BA
391 458 525 593 626 660 693 760 827 894 928 961 995 1062 1079 1129 1149 1216
